NAME : cgl_38.7253.tour
COMMENT : Length = 7253
COMMENT : Found by LKH-3 [Keld Helsgaun] Fri Nov  8 19:20:29 2024
TYPE : TOUR
DIMENSION : 38
TOUR_SECTION
15
33
7
13
11
17
26
29
2
1
22
21
10
32
34
9
24
18
25
30
14
8
36
35
31
19
12
28
37
38
4
3
6
5
23
27
16
20
-1
EOF
